% seed = 0

mint = 31;
% maxt = 150;

nActs = 62;
dur = [0,2,1,4,2,1,4,1,1,2,1,3,4,2,3,5,4,2,5,2,1,3,1,1,2,4,2,2,2,1,6,3,1,1,2,2,3,2,2,3,2,6,1,4,2,3,2,4,1,4,2,5,4,2,1,2,1,4,2,2,3,0];

nSkills = 9;
sreq = [| 0,0,0,0,0,0,0,0,0,
	| 0,0,1,0,0,0,0,0,0,
	| 0,0,1,0,1,0,0,1,0,
	| 0,0,0,0,1,1,0,0,0,
	| 0,1,0,0,0,0,0,2,0,
	| 0,0,0,0,0,2,0,0,0,
	| 0,0,0,0,0,0,0,1,1,
	| 0,0,2,1,0,0,0,0,0,
	| 0,0,0,0,0,0,0,1,0,
	| 0,0,1,1,0,0,0,1,0,
	| 0,0,0,0,0,0,0,1,0,
	| 0,0,0,0,2,0,1,0,0,
	| 0,0,1,0,0,0,0,0,0,
	| 0,0,0,1,0,0,0,0,0,
	| 0,1,2,0,0,0,0,0,0,
	| 0,0,0,0,1,1,0,0,0,
	| 0,1,0,0,0,0,0,0,0,
	| 0,0,0,0,1,0,0,0,0,
	| 1,0,0,0,0,0,1,1,0,
	| 0,0,0,0,0,0,1,0,0,
	| 0,1,0,0,0,0,0,0,0,
	| 0,0,0,0,0,0,0,1,0,
	| 0,1,0,0,0,0,0,0,0,
	| 0,1,0,0,0,1,0,0,0,
	| 0,1,0,0,0,1,0,1,0,
	| 0,0,0,0,1,0,0,2,0,
	| 0,0,0,0,1,1,0,1,0,
	| 0,0,0,0,1,0,1,1,0,
	| 0,0,1,0,0,1,0,0,0,
	| 0,0,0,0,0,2,0,0,0,
	| 0,0,1,0,0,0,0,2,0,
	| 0,0,0,0,1,1,0,0,0,
	| 0,0,0,1,0,1,0,1,0,
	| 0,0,0,0,0,1,1,1,0,
	| 0,0,1,0,1,0,0,1,0,
	| 0,0,0,0,1,0,0,0,0,
	| 0,0,1,1,0,0,0,1,0,
	| 0,1,0,0,0,1,0,1,0,
	| 0,0,1,0,0,0,0,0,0,
	| 0,0,0,1,0,0,0,0,0,
	| 0,1,1,0,0,0,0,0,0,
	| 0,0,1,0,1,1,0,0,0,
	| 0,0,0,0,1,0,0,0,0,
	| 0,0,0,0,0,1,0,1,0,
	| 0,1,0,0,0,2,0,0,0,
	| 0,0,0,0,0,1,0,0,0,
	| 0,1,0,0,0,1,0,1,0,
	| 0,0,0,0,0,1,1,1,0,
	| 0,0,0,0,1,1,0,1,0,
	| 0,0,1,0,0,0,0,1,0,
	| 0,1,0,0,0,0,1,1,0,
	| 0,0,0,0,1,0,1,1,0,
	| 0,0,1,0,1,0,0,0,0,
	| 0,1,0,0,0,0,0,1,0,
	| 0,0,1,0,0,0,0,2,0,
	| 0,0,1,0,0,0,1,0,0,
	| 0,0,0,1,0,0,1,0,0,
	| 0,0,0,0,0,1,0,1,0,
	| 0,0,0,0,0,1,1,1,0,
	| 0,0,0,0,0,0,0,1,0,
	| 1,0,0,0,0,1,0,1,0,
	| 0,0,0,0,0,0,0,0,0, |];

% SumOfsreq = 130;

nResources = 10;
mastery = [| false,false,false,false,true,true,true,true,true,
	| false,true,true,false,false,false,false,false,true,
	| false,true,true,false,true,true,true,true,true,
	| true,true,true,false,false,false,false,true,true,
	| false,false,false,false,false,true,true,true,true,
	| false,false,false,true,true,true,false,false,false,
	| false,false,true,false,false,false,false,true,true,
	| false,false,false,false,true,true,false,false,false,
	| false,false,false,false,false,false,false,true,true,
	| false,false,false,false,false,false,false,true,true, |];

nPrecs = 131;
pred = [1,1,1,2,2,3,3,3,4,4,4,5,5,5,6,6,6,7,7,8,8,8,9,9,9,10,10,10,11,11,11,12,12,12,13,13,13,14,14,14,15,15,15,16,16,16,17,17,17,18,18,18,19,19,19,20,21,21,21,22,22,22,23,23,23,24,24,24,25,25,25,26,26,26,27,27,27,28,29,29,29,30,30,30,31,32,32,32,33,33,33,34,34,34,35,35,36,36,36,37,38,39,39,40,40,41,42,43,44,44,45,46,46,47,47,48,49,50,51,52,52,53,53,54,55,56,57,58,59,60,61];
succ = [2,3,4,21,6,5,7,8,9,10,13,18,61,47,12,14,16,27,37,34,11,21,25,35,40,19,29,22,35,45,15,17,20,23,52,22,38,25,52,40,41,26,39,26,27,54,34,31,48,33,19,28,27,44,45,54,25,37,24,31,23,24,26,44,34,47,30,39,30,31,46,49,57,51,53,30,32,32,42,36,46,41,58,51,50,38,55,40,41,45,39,49,57,35,37,46,38,47,54,43,56,42,43,43,60,50,44,50,49,48,59,51,53,55,48,57,58,59,56,61,53,55,56,61,58,60,59,60,62,62,62];

nUnrels = 1006;
unpred = [2,2,2,2,2,2,2,2,2,2,2,2,2,2,2,2,2,2,3,3,3,3,3,3,3,3,3,3,3,3,3,3,3,3,4,4,4,4,4,4,4,4,4,4,4,4,4,4,4,5,5,5,5,5,5,5,5,5,5,5,5,5,5,5,5,5,5,5,5,5,5,5,5,5,5,5,5,6,6,6,6,6,6,6,6,6,6,6,6,6,6,6,6,6,6,6,6,7,7,7,7,7,7,7,7,7,7,7,7,7,7,7,7,7,7,7,7,7,7,7,7,7,7,7,7,7,7,7,7,7,7,7,7,7,7,8,8,8,8,8,8,8,8,8,8,8,8,8,8,8,8,8,8,8,8,8,8,8,9,9,9,9,9,9,9,9,9,9,9,9,9,9,9,9,9,9,9,9,9,9,9,9,9,9,9,9,9,9,9,9,9,9,9,10,10,10,10,10,10,10,10,10,10,10,10,10,10,11,11,11,11,11,11,11,11,11,11,11,11,11,11,11,11,11,11,11,11,11,11,11,11,11,11,11,11,12,12,12,12,12,12,12,12,12,12,12,12,12,12,12,12,12,12,12,12,12,12,12,12,12,13,13,13,13,13,13,13,13,13,13,13,13,13,13,13,13,13,13,14,14,14,14,14,14,14,14,14,14,14,14,14,14,14,14,14,14,14,14,14,14,14,14,14,14,14,14,14,14,15,15,15,15,15,15,15,15,15,15,15,15,15,15,15,15,15,15,15,15,15,15,15,15,15,15,15,15,15,15,15,16,16,16,16,16,16,16,16,16,16,16,16,16,16,16,16,16,16,16,16,16,16,16,16,16,17,17,17,17,17,17,17,17,17,17,17,17,17,17,17,17,17,17,17,17,17,17,17,17,17,17,17,18,18,18,18,18,18,18,18,18,18,18,18,18,18,18,18,18,18,19,19,19,19,19,19,19,19,19,19,19,19,19,19,19,19,19,19,19,19,19,19,20,20,20,20,20,20,20,20,20,20,20,20,20,20,20,20,20,20,20,20,20,20,20,20,20,20,20,20,20,20,20,20,20,20,20,20,20,20,20,21,21,21,21,21,21,21,21,21,21,21,21,21,21,21,21,21,22,22,22,22,22,22,22,22,22,22,22,22,22,23,23,23,23,23,23,23,23,23,23,23,23,23,23,23,23,23,23,23,23,24,24,24,24,24,24,24,24,24,24,24,24,24,24,24,24,24,24,24,24,25,25,25,25,25,25,25,25,25,25,25,25,25,25,25,25,25,25,25,25,25,25,25,25,26,26,26,26,26,26,26,26,26,26,26,26,26,26,26,26,26,26,26,26,26,26,26,26,26,26,26,26,27,27,27,27,27,27,27,27,27,27,27,27,27,27,27,27,27,27,27,27,28,28,28,28,28,28,28,28,28,28,28,28,28,28,28,28,28,28,28,28,28,28,28,29,29,29,29,29,29,29,29,29,29,29,29,29,29,30,30,30,30,30,30,30,30,30,30,30,30,30,30,30,30,30,30,30,30,30,30,30,30,31,31,31,31,31,31,31,31,31,31,31,31,31,31,31,31,31,31,31,31,31,31,31,31,31,31,31,31,32,32,32,32,32,32,32,32,32,32,32,32,32,32,32,32,32,32,32,32,33,33,33,33,33,33,33,33,33,33,33,33,33,33,33,34,34,34,34,34,34,34,34,34,34,34,34,34,35,35,35,35,35,35,35,35,35,35,35,35,35,35,35,36,36,36,36,36,36,36,36,36,36,36,36,36,36,37,37,37,37,37,37,37,37,37,37,37,37,37,37,37,37,37,37,37,37,37,38,38,38,38,38,38,38,38,38,38,38,38,38,38,38,38,38,38,38,38,38,39,39,39,39,39,39,39,39,39,39,39,39,40,40,40,40,40,40,40,40,40,40,40,40,40,40,40,40,40,41,41,41,41,41,41,41,41,41,41,41,41,41,41,41,41,41,41,42,42,42,42,42,42,42,42,42,42,42,42,43,43,43,43,43,43,43,43,43,43,43,43,43,43,43,43,44,44,44,44,44,44,44,44,44,44,44,45,45,45,45,45,45,45,45,45,45,45,45,45,45,45,46,46,46,46,46,46,46,46,46,47,47,47,47,47,47,47,47,48,48,48,48,48,48,48,48,48,48,48,49,49,49,49,49,49,49,49,49,49,50,50,50,50,50,50,50,50,50,50,51,51,51,51,51,51,51,51,52,52,52,53,53,53,53,54,54,54,54,54,54,55,55,55,55,56,56,56,56,57,57,57,58,58,59,59,60];
unsucc = [3,4,5,7,8,9,10,11,13,15,18,19,22,28,29,33,36,45,4,6,9,10,12,13,14,16,17,20,22,23,29,36,52,54,5,6,7,8,11,12,14,15,16,17,18,20,21,28,33,6,7,8,9,10,11,12,13,14,15,16,17,20,21,22,23,24,25,26,29,31,34,35,36,37,46,52,54,7,8,9,10,11,13,15,18,19,21,22,24,28,29,33,36,39,42,45,47,8,9,10,11,12,13,14,15,16,17,18,19,20,21,22,23,24,25,26,28,29,31,33,34,35,36,39,42,44,45,46,47,48,49,52,54,57,61,9,10,12,13,14,16,17,18,19,20,22,23,27,28,29,32,33,36,38,40,52,54,61,10,11,12,13,14,15,16,17,18,19,20,21,22,23,24,26,27,28,29,32,33,34,36,38,39,42,44,45,47,48,49,52,54,57,61,11,12,13,14,15,16,17,18,20,21,25,28,33,52,12,13,14,16,17,18,19,20,21,22,23,24,25,27,28,29,30,31,32,33,34,36,38,40,47,52,54,61,13,14,15,16,18,19,21,22,24,25,27,28,29,30,32,33,36,38,39,40,41,42,45,47,52,14,15,16,17,18,19,20,21,25,27,28,29,32,33,36,40,45,54,15,16,17,18,19,20,21,22,23,24,26,27,28,29,32,33,34,35,36,37,38,39,42,44,45,47,48,49,54,57,16,17,18,19,20,21,22,23,24,25,27,28,29,30,31,32,33,34,35,36,37,38,40,45,46,47,52,53,54,55,61,17,18,19,20,21,22,23,24,25,28,29,31,33,34,35,36,37,39,42,44,45,46,47,48,52,18,19,20,21,22,23,24,25,26,27,28,29,30,32,33,36,38,39,40,41,42,44,45,47,52,54,61,20,21,22,23,24,25,26,29,31,34,35,36,37,46,47,52,54,61,20,21,22,23,24,25,26,28,29,31,33,34,35,36,37,39,42,46,47,52,54,61,21,22,23,24,25,26,27,28,29,30,31,32,33,34,35,36,37,38,39,40,41,42,43,44,45,46,47,48,49,50,51,52,53,55,56,57,58,59,60,22,23,26,27,28,29,32,33,34,35,36,38,40,45,52,54,61,25,27,28,29,32,33,36,38,40,45,52,54,61,24,25,27,28,29,30,31,32,33,36,38,39,40,41,42,45,47,52,54,61,25,26,27,28,29,31,32,33,34,35,36,37,38,40,45,46,52,53,54,61,26,27,28,29,32,33,34,35,36,37,38,39,40,42,43,44,45,47,48,49,52,54,57,61,27,28,29,30,31,32,33,34,35,36,37,38,39,40,41,42,43,44,45,46,47,48,50,52,53,54,55,61,28,29,31,33,34,35,36,37,39,42,44,45,46,47,48,49,52,54,57,61,29,30,31,33,34,35,36,37,39,41,42,44,45,46,47,48,49,51,52,53,54,57,61,30,31,32,33,34,35,37,39,40,41,43,45,50,52,31,32,33,34,35,36,37,38,39,40,42,43,44,45,46,47,48,49,52,53,54,55,57,61,32,33,34,35,36,37,38,39,40,41,42,43,44,45,46,47,48,49,51,52,53,54,55,56,57,58,60,61,33,34,35,36,37,39,41,42,44,45,46,47,48,49,51,52,53,54,57,61,34,35,36,37,38,40,46,47,51,52,53,54,55,56,61,36,38,39,40,41,42,44,45,47,48,52,54,61,36,38,39,40,41,42,44,45,47,48,49,52,54,57,61,37,39,40,41,42,43,44,45,46,49,50,51,52,53,38,39,40,41,42,44,45,46,47,48,49,51,52,53,54,55,56,57,58,60,61,39,40,41,42,43,44,45,46,47,48,49,50,51,52,53,54,55,57,58,59,61,40,41,45,46,47,51,52,53,54,55,56,61,41,42,44,45,46,47,48,49,51,52,53,54,55,56,57,58,61,42,43,44,45,46,47,48,49,51,52,53,54,55,56,57,58,60,61,43,45,46,47,50,51,52,53,54,55,56,61,44,45,46,47,48,49,51,52,53,54,55,56,57,58,60,61,45,46,47,50,51,52,53,54,55,56,61,46,47,48,49,50,51,52,53,54,55,56,57,58,60,61,47,48,49,50,52,54,57,59,61,49,50,51,52,53,54,56,61,49,50,51,52,53,54,55,56,58,60,61,50,51,52,53,54,55,56,57,59,61,51,52,53,54,55,56,57,58,60,61,52,53,54,55,57,58,59,61,54,57,59,54,57,59,61,55,56,57,58,59,60,56,57,59,61,57,58,59,61,58,60,61,59,61,60,61,61];

USEFUL_RES = [{},
	{2,3,4,7},
	{1,2,3,4,5,6,7,8,9,10},
	{1,3,5,6,8},
	{1,2,3,4,5,7,9,10},
	{1,3,5,6,8},
	{1,2,3,4,5,7,9,10},
	{2,3,4,6,7},
	{1,3,4,5,7,9,10},
	{1,2,3,4,5,6,7,9,10},
	{1,3,4,5,7,9,10},
	{1,3,5,6,8},
	{2,3,4,7},
	{6},
	{2,3,4,7},
	{1,3,5,6,8},
	{2,3,4},
	{1,3,6,8},
	{1,3,4,5,7,9,10},
	{1,3,5},
	{2,3,4},
	{1,3,4,5,7,9,10},
	{2,3,4},
	{1,2,3,4,5,6,8},
	{1,2,3,4,5,6,7,8,9,10},
	{1,3,4,5,6,7,8,9,10},
	{1,3,4,5,6,7,8,9,10},
	{1,3,4,5,6,7,8,9,10},
	{1,2,3,4,5,6,7,8},
	{1,3,5,6,8},
	{1,2,3,4,5,7,9,10},
	{1,3,5,6,8},
	{1,3,4,5,6,7,8,9,10},
	{1,3,4,5,6,7,8,9,10},
	{1,2,3,4,5,6,7,8,9,10},
	{1,3,6,8},
	{1,2,3,4,5,6,7,9,10},
	{1,2,3,4,5,6,7,8,9,10},
	{2,3,4,7},
	{6},
	{2,3,4,7},
	{1,2,3,4,5,6,7,8},
	{1,3,6,8},
	{1,3,4,5,6,7,8,9,10},
	{1,2,3,4,5,6,8},
	{1,3,5,6,8},
	{1,2,3,4,5,6,7,8,9,10},
	{1,3,4,5,6,7,8,9,10},
	{1,3,4,5,6,7,8,9,10},
	{1,2,3,4,5,7,9,10},
	{1,2,3,4,5,7,9,10},
	{1,3,4,5,6,7,8,9,10},
	{1,2,3,4,6,7,8},
	{1,2,3,4,5,7,9,10},
	{1,2,3,4,5,7,9,10},
	{1,2,3,4,5,7},
	{1,3,5,6},
	{1,3,4,5,6,7,8,9,10},
	{1,3,4,5,6,7,8,9,10},
	{1,3,4,5,7,9,10},
	{1,3,4,5,6,7,8,9,10},
	{}];

POTENTIAL_ACT = [{3,4,5,6,7,9,10,11,12,16,18,19,20,22,24,25,26,27,28,29,30,31,32,33,34,35,36,37,38,42,43,44,45,46,47,48,49,50,51,52,53,54,55,56,57,58,59,60,61},
	{2,3,5,7,8,10,13,15,17,21,23,24,25,29,31,35,37,38,39,41,42,45,47,50,51,53,54,55,56},
	{2,3,4,5,6,7,8,9,10,11,12,13,15,16,17,18,19,20,21,22,23,24,25,26,27,28,29,30,31,32,33,34,35,36,37,38,39,41,42,43,44,45,46,47,48,49,50,51,52,53,54,55,56,57,58,59,60,61},
	{2,3,5,7,8,9,10,11,13,15,17,19,21,22,23,24,25,26,27,28,29,31,33,34,35,37,38,39,41,42,44,45,47,48,49,50,51,52,53,54,55,56,58,59,60,61},
	{3,4,5,6,7,9,10,11,12,16,19,20,22,24,25,26,27,28,29,30,31,32,33,34,35,37,38,42,44,45,46,47,48,49,50,51,52,54,55,56,57,58,59,60,61},
	{3,4,6,8,10,12,14,16,18,24,25,26,27,28,29,30,32,33,34,35,36,37,38,40,42,43,44,45,46,47,48,49,52,53,57,58,59,61},
	{2,3,5,7,8,9,10,11,13,15,19,22,25,26,27,28,29,31,33,34,35,37,38,39,41,42,44,47,48,49,50,51,52,53,54,55,56,58,59,60,61},
	{3,4,6,12,16,18,24,25,26,27,28,29,30,32,33,34,35,36,38,42,43,44,45,46,47,48,49,52,53,58,59,61},
	{3,5,7,9,10,11,19,22,25,26,27,28,31,33,34,35,37,38,44,47,48,49,50,51,52,54,55,58,59,60,61},
	{3,5,7,9,10,11,19,22,25,26,27,28,31,33,34,35,37,38,44,47,48,49,50,51,52,54,55,58,59,60,61}];
